p cnf 180 1063
1 0
-2 0
-3 0
-4 0
-5 0
31 6 0
-31 -6 0
-6 -7 0
-6 -8 0
-6 -9 0
-6 -10 0
-7 -8 0
-7 -9 0
-7 -10 0
-8 -9 0
-8 -10 0
-9 -10 0
-6 36 1 0
-6 36 11 0
-6 1 11 0
-7 37 2 0
-7 37 12 0
-7 2 12 0
-8 38 3 0
-8 38 13 0
-8 3 13 0
-9 39 4 0
-9 39 14 0
-9 4 14 0
-10 40 5 0
-10 40 15 0
-10 5 15 0
-6 -36 -1 -11 0
-7 -37 -2 -12 0
-8 -38 -3 -13 0
-9 -39 -4 -14 0
-10 -40 -5 -15 0
-11 -12 0
-11 -13 0
-11 -14 0
-11 -15 0
-12 -13 0
-12 -14 0
-12 -15 0
-13 -14 0
-13 -15 0
-14 -15 0
-11 41 6 0
-11 41 16 0
-11 6 16 0
-12 42 7 0
-12 42 17 0
-12 7 17 0
-13 43 8 0
-13 43 18 0
-13 8 18 0
-14 44 9 0
-14 44 19 0
-14 9 19 0
-15 45 10 0
-15 45 20 0
-15 10 20 0
-11 -41 -6 -16 0
-12 -42 -7 -17 0
-13 -43 -8 -18 0
-14 -44 -9 -19 0
-15 -45 -10 -20 0
-16 -17 0
-16 -18 0
-16 -19 0
-16 -20 0
-17 -18 0
-17 -19 0
-17 -20 0
-18 -19 0
-18 -20 0
-19 -20 0
-16 46 11 0
-16 46 21 0
-16 11 21 0
-17 47 12 0
-17 47 22 0
-17 12 22 0
-18 48 13 0
-18 48 23 0
-18 13 23 0
-19 49 14 0
-19 49 24 0
-19 14 24 0
-20 50 15 0
-20 50 25 0
-20 15 25 0
-16 -46 -11 -21 0
-17 -47 -12 -22 0
-18 -48 -13 -23 0
-19 -49 -14 -24 0
-20 -50 -15 -25 0
-21 -22 0
-21 -23 0
-21 -24 0
-21 -25 0
-22 -23 0
-22 -24 0
-22 -25 0
-23 -24 0
-23 -25 0
-24 -25 0
-21 51 16 0
-21 51 26 0
-21 16 26 0
-22 52 17 0
-22 52 27 0
-22 17 27 0
-23 53 18 0
-23 53 28 0
-23 18 28 0
-24 54 19 0
-24 54 29 0
-24 19 29 0
-25 55 20 0
-25 55 30 0
-25 20 30 0
-21 -51 -16 -26 0
-22 -52 -17 -27 0
-23 -53 -18 -28 0
-24 -54 -19 -29 0
-25 -55 -20 -30 0
-26 -27 0
-26 -28 0
-26 -29 0
-26 -30 0
-27 -28 0
-27 -29 0
-27 -30 0
-28 -29 0
-28 -30 0
-29 -30 0
-26 56 0
-26 21 0
-27 57 0
-27 22 0
-28 58 0
-28 23 0
-29 59 0
-29 24 0
-30 60 0
-30 25 0
-31 -32 0
-31 -33 0
-31 -34 0
-31 -35 0
-32 -33 0
-32 -34 0
-32 -35 0
-33 -34 0
-33 -35 0
-34 -35 0
-31 61 1 0
-31 61 36 0
-31 1 36 0
-32 62 2 0
-32 62 37 0
-32 2 37 0
-33 63 3 0
-33 63 38 0
-33 3 38 0
-34 64 4 0
-34 64 39 0
-34 4 39 0
-35 65 5 0
-35 65 40 0
-35 5 40 0
-31 -61 -1 -36 0
-32 -62 -2 -37 0
-33 -63 -3 -38 0
-34 -64 -4 -39 0
-35 -65 -5 -40 0
37 0
-36 0
-38 0
-39 0
-40 0
67 7 42 32 0
-67 -7 0
-67 -42 0
-67 -32 0
-7 -42 0
-7 -32 0
-42 -32 0
43 0
-41 0
-42 0
-44 0
-45 0
73 13 48 38 0
-73 -13 0
-73 -48 0
-73 -38 0
-13 -48 0
-13 -38 0
-48 -38 0
-46 -47 0
-46 -48 0
-46 -49 0
-46 -50 0
-47 -48 0
-47 -49 0
-47 -50 0
-48 -49 0
-48 -50 0
-49 -50 0
-46 76 16 51 0
-46 76 16 41 0
-46 76 51 41 0
-46 16 51 41 0
-47 77 17 52 0
-47 77 17 42 0
-47 77 52 42 0
-47 17 52 42 0
-48 78 18 53 0
-48 78 18 43 0
-48 78 53 43 0
-48 18 53 43 0
-49 79 19 54 0
-49 79 19 44 0
-49 79 54 44 0
-49 19 54 44 0
-50 80 20 55 0
-50 80 20 45 0
-50 80 55 45 0
-50 20 55 45 0
-46 -76 -16 -51 0
-46 -76 -16 -41 0
-46 -76 -51 -41 0
-46 -16 -51 -41 0
-47 -77 -17 -52 0
-47 -77 -17 -42 0
-47 -77 -52 -42 0
-47 -17 -52 -42 0
-48 -78 -18 -53 0
-48 -78 -18 -43 0
-48 -78 -53 -43 0
-48 -18 -53 -43 0
-49 -79 -19 -54 0
-49 -79 -19 -44 0
-49 -79 -54 -44 0
-49 -19 -54 -44 0
-50 -80 -20 -55 0
-50 -80 -20 -45 0
-50 -80 -55 -45 0
-50 -20 -55 -45 0
-51 -52 0
-51 -53 0
-51 -54 0
-51 -55 0
-52 -53 0
-52 -54 0
-52 -55 0
-53 -54 0
-53 -55 0
-54 -55 0
-51 81 21 56 0
-51 81 21 46 0
-51 81 56 46 0
-51 21 56 46 0
-52 82 22 57 0
-52 82 22 47 0
-52 82 57 47 0
-52 22 57 47 0
-53 83 23 58 0
-53 83 23 48 0
-53 83 58 48 0
-53 23 58 48 0
-54 84 24 59 0
-54 84 24 49 0
-54 84 59 49 0
-54 24 59 49 0
-55 85 25 60 0
-55 85 25 50 0
-55 85 60 50 0
-55 25 60 50 0
-51 -81 -21 -56 0
-51 -81 -21 -46 0
-51 -81 -56 -46 0
-51 -21 -56 -46 0
-52 -82 -22 -57 0
-52 -82 -22 -47 0
-52 -82 -57 -47 0
-52 -22 -57 -47 0
-53 -83 -23 -58 0
-53 -83 -23 -48 0
-53 -83 -58 -48 0
-53 -23 -58 -48 0
-54 -84 -24 -59 0
-54 -84 -24 -49 0
-54 -84 -59 -49 0
-54 -24 -59 -49 0
-55 -85 -25 -60 0
-55 -85 -25 -50 0
-55 -85 -60 -50 0
-55 -25 -60 -50 0
-56 -57 0
-56 -58 0
-56 -59 0
-56 -60 0
-57 -58 0
-57 -59 0
-57 -60 0
-58 -59 0
-58 -60 0
-59 -60 0
-56 86 26 0
-56 86 51 0
-56 26 51 0
-57 87 27 0
-57 87 52 0
-57 27 52 0
-58 88 28 0
-58 88 53 0
-58 28 53 0
-59 89 29 0
-59 89 54 0
-59 29 54 0
-60 90 30 0
-60 90 55 0
-60 30 55 0
-56 -86 -26 -51 0
-57 -87 -27 -52 0
-58 -88 -28 -53 0
-59 -89 -29 -54 0
-60 -90 -30 -55 0
-61 -62 0
-61 -63 0
-61 -64 0
-61 -65 0
-62 -63 0
-62 -64 0
-62 -65 0
-63 -64 0
-63 -65 0
-64 -65 0
-61 91 31 0
-61 91 66 0
-61 31 66 0
-62 92 32 0
-62 92 67 0
-62 32 67 0
-63 93 33 0
-63 93 68 0
-63 33 68 0
-64 94 34 0
-64 94 69 0
-64 34 69 0
-65 95 35 0
-65 95 70 0
-65 35 70 0
-61 -91 -31 -66 0
-62 -92 -32 -67 0
-63 -93 -33 -68 0
-64 -94 -34 -69 0
-65 -95 -35 -70 0
-66 -67 0
-66 -68 0
-66 -69 0
-66 -70 0
-67 -68 0
-67 -69 0
-67 -70 0
-68 -69 0
-68 -70 0
-69 -70 0
-66 96 36 71 0
-66 96 36 61 0
-66 96 71 61 0
-66 36 71 61 0
-67 97 37 72 0
-67 97 37 62 0
-67 97 72 62 0
-67 37 72 62 0
-68 98 38 73 0
-68 98 38 63 0
-68 98 73 63 0
-68 38 73 63 0
-69 99 39 74 0
-69 99 39 64 0
-69 99 74 64 0
-69 39 74 64 0
-70 100 40 75 0
-70 100 40 65 0
-70 100 75 65 0
-70 40 75 65 0
-66 -96 -36 -71 0
-66 -96 -36 -61 0
-66 -96 -71 -61 0
-66 -36 -71 -61 0
-67 -97 -37 -72 0
-67 -97 -37 -62 0
-67 -97 -72 -62 0
-67 -37 -72 -62 0
-68 -98 -38 -73 0
-68 -98 -38 -63 0
-68 -98 -73 -63 0
-68 -38 -73 -63 0
-69 -99 -39 -74 0
-69 -99 -39 -64 0
-69 -99 -74 -64 0
-69 -39 -74 -64 0
-70 -100 -40 -75 0
-70 -100 -40 -65 0
-70 -100 -75 -65 0
-70 -40 -75 -65 0
-71 -72 0
-71 -73 0
-71 -74 0
-71 -75 0
-72 -73 0
-72 -74 0
-72 -75 0
-73 -74 0
-73 -75 0
-74 -75 0
-71 101 41 76 0
-71 101 41 66 0
-71 101 76 66 0
-71 41 76 66 0
-72 102 42 77 0
-72 102 42 67 0
-72 102 77 67 0
-72 42 77 67 0
-73 103 43 78 0
-73 103 43 68 0
-73 103 78 68 0
-73 43 78 68 0
-74 104 44 79 0
-74 104 44 69 0
-74 104 79 69 0
-74 44 79 69 0
-75 105 45 80 0
-75 105 45 70 0
-75 105 80 70 0
-75 45 80 70 0
-71 -101 -41 -76 0
-71 -101 -41 -66 0
-71 -101 -76 -66 0
-71 -41 -76 -66 0
-72 -102 -42 -77 0
-72 -102 -42 -67 0
-72 -102 -77 -67 0
-72 -42 -77 -67 0
-73 -103 -43 -78 0
-73 -103 -43 -68 0
-73 -103 -78 -68 0
-73 -43 -78 -68 0
-74 -104 -44 -79 0
-74 -104 -44 -69 0
-74 -104 -79 -69 0
-74 -44 -79 -69 0
-75 -105 -45 -80 0
-75 -105 -45 -70 0
-75 -105 -80 -70 0
-75 -45 -80 -70 0
-76 -77 0
-76 -78 0
-76 -79 0
-76 -80 0
-77 -78 0
-77 -79 0
-77 -80 0
-78 -79 0
-78 -80 0
-79 -80 0
-76 106 46 81 0
-76 106 46 71 0
-76 106 81 71 0
-76 46 81 71 0
-77 107 47 82 0
-77 107 47 72 0
-77 107 82 72 0
-77 47 82 72 0
-78 108 48 83 0
-78 108 48 73 0
-78 108 83 73 0
-78 48 83 73 0
-79 109 49 84 0
-79 109 49 74 0
-79 109 84 74 0
-79 49 84 74 0
-80 110 50 85 0
-80 110 50 75 0
-80 110 85 75 0
-80 50 85 75 0
-76 -106 -46 -81 0
-76 -106 -46 -71 0
-76 -106 -81 -71 0
-76 -46 -81 -71 0
-77 -107 -47 -82 0
-77 -107 -47 -72 0
-77 -107 -82 -72 0
-77 -47 -82 -72 0
-78 -108 -48 -83 0
-78 -108 -48 -73 0
-78 -108 -83 -73 0
-78 -48 -83 -73 0
-79 -109 -49 -84 0
-79 -109 -49 -74 0
-79 -109 -84 -74 0
-79 -49 -84 -74 0
-80 -110 -50 -85 0
-80 -110 -50 -75 0
-80 -110 -85 -75 0
-80 -50 -85 -75 0
-81 -82 0
-81 -83 0
-81 -84 0
-81 -85 0
-82 -83 0
-82 -84 0
-82 -85 0
-83 -84 0
-83 -85 0
-84 -85 0
-81 111 51 86 0
-81 111 51 76 0
-81 111 86 76 0
-81 51 86 76 0
-82 112 52 87 0
-82 112 52 77 0
-82 112 87 77 0
-82 52 87 77 0
-83 113 53 88 0
-83 113 53 78 0
-83 113 88 78 0
-83 53 88 78 0
-84 114 54 89 0
-84 114 54 79 0
-84 114 89 79 0
-84 54 89 79 0
-85 115 55 90 0
-85 115 55 80 0
-85 115 90 80 0
-85 55 90 80 0
-81 -111 -51 -86 0
-81 -111 -51 -76 0
-81 -111 -86 -76 0
-81 -51 -86 -76 0
-82 -112 -52 -87 0
-82 -112 -52 -77 0
-82 -112 -87 -77 0
-82 -52 -87 -77 0
-83 -113 -53 -88 0
-83 -113 -53 -78 0
-83 -113 -88 -78 0
-83 -53 -88 -78 0
-84 -114 -54 -89 0
-84 -114 -54 -79 0
-84 -114 -89 -79 0
-84 -54 -89 -79 0
-85 -115 -55 -90 0
-85 -115 -55 -80 0
-85 -115 -90 -80 0
-85 -55 -90 -80 0
-86 -87 0
-86 -88 0
-86 -89 0
-86 -90 0
-87 -88 0
-87 -89 0
-87 -90 0
-88 -89 0
-88 -90 0
-89 -90 0
-86 116 56 0
-86 116 81 0
-86 56 81 0
-87 117 57 0
-87 117 82 0
-87 57 82 0
-88 118 58 0
-88 118 83 0
-88 58 83 0
-89 119 59 0
-89 119 84 0
-89 59 84 0
-90 120 60 0
-90 120 85 0
-90 60 85 0
-86 -116 -56 -81 0
-87 -117 -57 -82 0
-88 -118 -58 -83 0
-89 -119 -59 -84 0
-90 -120 -60 -85 0
-91 -92 0
-91 -93 0
-91 -94 0
-91 -95 0
-92 -93 0
-92 -94 0
-92 -95 0
-93 -94 0
-93 -95 0
-94 -95 0
-91 121 61 0
-91 121 96 0
-91 61 96 0
-92 122 62 0
-92 122 97 0
-92 62 97 0
-93 123 63 0
-93 123 98 0
-93 63 98 0
-94 124 64 0
-94 124 99 0
-94 64 99 0
-95 125 65 0
-95 125 100 0
-95 65 100 0
-91 -121 -61 -96 0
-92 -122 -62 -97 0
-93 -123 -63 -98 0
-94 -124 -64 -99 0
-95 -125 -65 -100 0
99 0
-96 0
-97 0
-98 0
-100 0
129 69 104 94 0
-129 -69 0
-129 -104 0
-129 -94 0
-69 -104 0
-69 -94 0
-104 -94 0
105 0
-101 0
-102 0
-103 0
-104 0
135 75 110 100 0
-135 -75 0
-135 -110 0
-135 -100 0
-75 -110 0
-75 -100 0
-110 -100 0
109 0
-106 0
-107 0
-108 0
-110 0
139 79 114 104 0
-139 -79 0
-139 -114 0
-139 -104 0
-79 -114 0
-79 -104 0
-114 -104 0
-111 -112 0
-111 -113 0
-111 -114 0
-111 -115 0
-112 -113 0
-112 -114 0
-112 -115 0
-113 -114 0
-113 -115 0
-114 -115 0
-111 141 81 116 0
-111 141 81 106 0
-111 141 116 106 0
-111 81 116 106 0
-112 142 82 117 0
-112 142 82 107 0
-112 142 117 107 0
-112 82 117 107 0
-113 143 83 118 0
-113 143 83 108 0
-113 143 118 108 0
-113 83 118 108 0
-114 144 84 119 0
-114 144 84 109 0
-114 144 119 109 0
-114 84 119 109 0
-115 145 85 120 0
-115 145 85 110 0
-115 145 120 110 0
-115 85 120 110 0
-111 -141 -81 -116 0
-111 -141 -81 -106 0
-111 -141 -116 -106 0
-111 -81 -116 -106 0
-112 -142 -82 -117 0
-112 -142 -82 -107 0
-112 -142 -117 -107 0
-112 -82 -117 -107 0
-113 -143 -83 -118 0
-113 -143 -83 -108 0
-113 -143 -118 -108 0
-113 -83 -118 -108 0
-114 -144 -84 -119 0
-114 -144 -84 -109 0
-114 -144 -119 -109 0
-114 -84 -119 -109 0
-115 -145 -85 -120 0
-115 -145 -85 -110 0
-115 -145 -120 -110 0
-115 -85 -120 -110 0
-116 -117 0
-116 -118 0
-116 -119 0
-116 -120 0
-117 -118 0
-117 -119 0
-117 -120 0
-118 -119 0
-118 -120 0
-119 -120 0
-116 146 86 0
-116 146 111 0
-116 86 111 0
-117 147 87 0
-117 147 112 0
-117 87 112 0
-118 148 88 0
-118 148 113 0
-118 88 113 0
-119 149 89 0
-119 149 114 0
-119 89 114 0
-120 150 90 0
-120 150 115 0
-120 90 115 0
-116 -146 -86 -111 0
-117 -147 -87 -112 0
-118 -148 -88 -113 0
-119 -149 -89 -114 0
-120 -150 -90 -115 0
-121 -122 0
-121 -123 0
-121 -124 0
-121 -125 0
-122 -123 0
-122 -124 0
-122 -125 0
-123 -124 0
-123 -125 0
-124 -125 0
-121 151 91 0
-121 151 126 0
-121 91 126 0
-122 152 92 0
-122 152 127 0
-122 92 127 0
-123 153 93 0
-123 153 128 0
-123 93 128 0
-124 154 94 0
-124 154 129 0
-124 94 129 0
-125 155 95 0
-125 155 130 0
-125 95 130 0
-121 -151 -91 -126 0
-122 -152 -92 -127 0
-123 -153 -93 -128 0
-124 -154 -94 -129 0
-125 -155 -95 -130 0
130 0
-126 0
-127 0
-128 0
-129 0
160 100 135 125 0
-160 -100 0
-160 -135 0
-160 -125 0
-100 -135 0
-100 -125 0
-135 -125 0
-131 -132 0
-131 -133 0
-131 -134 0
-131 -135 0
-132 -133 0
-132 -134 0
-132 -135 0
-133 -134 0
-133 -135 0
-134 -135 0
-131 161 101 136 0
-131 161 101 126 0
-131 161 136 126 0
-131 101 136 126 0
-132 162 102 137 0
-132 162 102 127 0
-132 162 137 127 0
-132 102 137 127 0
-133 163 103 138 0
-133 163 103 128 0
-133 163 138 128 0
-133 103 138 128 0
-134 164 104 139 0
-134 164 104 129 0
-134 164 139 129 0
-134 104 139 129 0
-135 165 105 140 0
-135 165 105 130 0
-135 165 140 130 0
-135 105 140 130 0
-131 -161 -101 -136 0
-131 -161 -101 -126 0
-131 -161 -136 -126 0
-131 -101 -136 -126 0
-132 -162 -102 -137 0
-132 -162 -102 -127 0
-132 -162 -137 -127 0
-132 -102 -137 -127 0
-133 -163 -103 -138 0
-133 -163 -103 -128 0
-133 -163 -138 -128 0
-133 -103 -138 -128 0
-134 -164 -104 -139 0
-134 -164 -104 -129 0
-134 -164 -139 -129 0
-134 -104 -139 -129 0
-135 -165 -105 -140 0
-135 -165 -105 -130 0
-135 -165 -140 -130 0
-135 -105 -140 -130 0
137 0
-136 0
-138 0
-139 0
-140 0
167 107 142 132 0
-167 -107 0
-167 -142 0
-167 -132 0
-107 -142 0
-107 -132 0
-142 -132 0
-141 -142 0
-141 -143 0
-141 -144 0
-141 -145 0
-142 -143 0
-142 -144 0
-142 -145 0
-143 -144 0
-143 -145 0
-144 -145 0
-141 171 111 146 0
-141 171 111 136 0
-141 171 146 136 0
-141 111 146 136 0
-142 172 112 147 0
-142 172 112 137 0
-142 172 147 137 0
-142 112 147 137 0
-143 173 113 148 0
-143 173 113 138 0
-143 173 148 138 0
-143 113 148 138 0
-144 174 114 149 0
-144 174 114 139 0
-144 174 149 139 0
-144 114 149 139 0
-145 175 115 150 0
-145 175 115 140 0
-145 175 150 140 0
-145 115 150 140 0
-141 -171 -111 -146 0
-141 -171 -111 -136 0
-141 -171 -146 -136 0
-141 -111 -146 -136 0
-142 -172 -112 -147 0
-142 -172 -112 -137 0
-142 -172 -147 -137 0
-142 -112 -147 -137 0
-143 -173 -113 -148 0
-143 -173 -113 -138 0
-143 -173 -148 -138 0
-143 -113 -148 -138 0
-144 -174 -114 -149 0
-144 -174 -114 -139 0
-144 -174 -149 -139 0
-144 -114 -149 -139 0
-145 -175 -115 -150 0
-145 -175 -115 -140 0
-145 -175 -150 -140 0
-145 -115 -150 -140 0
-146 -147 0
-146 -148 0
-146 -149 0
-146 -150 0
-147 -148 0
-147 -149 0
-147 -150 0
-148 -149 0
-148 -150 0
-149 -150 0
-146 176 116 0
-146 176 141 0
-146 116 141 0
-147 177 117 0
-147 177 142 0
-147 117 142 0
-148 178 118 0
-148 178 143 0
-148 118 143 0
-149 179 119 0
-149 179 144 0
-149 119 144 0
-150 180 120 0
-150 180 145 0
-150 120 145 0
-146 -176 -116 -141 0
-147 -177 -117 -142 0
-148 -178 -118 -143 0
-149 -179 -119 -144 0
-150 -180 -120 -145 0
-151 -152 0
-151 -153 0
-151 -154 0
-151 -155 0
-152 -153 0
-152 -154 0
-152 -155 0
-153 -154 0
-153 -155 0
-154 -155 0
-151 121 0
-151 156 0
-152 122 0
-152 157 0
-153 123 0
-153 158 0
-154 124 0
-154 159 0
-155 125 0
-155 160 0
-156 -157 0
-156 -158 0
-156 -159 0
-156 -160 0
-157 -158 0
-157 -159 0
-157 -160 0
-158 -159 0
-158 -160 0
-159 -160 0
-156 151 126 0
-156 126 161 0
-156 151 161 0
-157 152 127 0
-157 127 162 0
-157 152 162 0
-158 153 128 0
-158 128 163 0
-158 153 163 0
-159 154 129 0
-159 129 164 0
-159 154 164 0
-160 155 130 0
-160 130 165 0
-160 155 165 0
-156 -126 -151 -161 0
-157 -127 -152 -162 0
-158 -128 -153 -163 0
-159 -129 -154 -164 0
-160 -130 -155 -165 0
-161 -162 0
-161 -163 0
-161 -164 0
-161 -165 0
-162 -163 0
-162 -164 0
-162 -165 0
-163 -164 0
-163 -165 0
-164 -165 0
-161 156 131 0
-161 131 166 0
-161 156 166 0
-162 157 132 0
-162 132 167 0
-162 157 167 0
-163 158 133 0
-163 133 168 0
-163 158 168 0
-164 159 134 0
-164 134 169 0
-164 159 169 0
-165 160 135 0
-165 135 170 0
-165 160 170 0
-161 -131 -156 -166 0
-162 -132 -157 -167 0
-163 -133 -158 -168 0
-164 -134 -159 -169 0
-165 -135 -160 -170 0
-166 -167 0
-166 -168 0
-166 -169 0
-166 -170 0
-167 -168 0
-167 -169 0
-167 -170 0
-168 -169 0
-168 -170 0
-169 -170 0
-166 161 136 0
-166 136 171 0
-166 161 171 0
-167 162 137 0
-167 137 172 0
-167 162 172 0
-168 163 138 0
-168 138 173 0
-168 163 173 0
-169 164 139 0
-169 139 174 0
-169 164 174 0
-170 165 140 0
-170 140 175 0
-170 165 175 0
-166 -136 -161 -171 0
-167 -137 -162 -172 0
-168 -138 -163 -173 0
-169 -139 -164 -174 0
-170 -140 -165 -175 0
173 0
-171 0
-172 0
-174 0
-175 0
168 143 178 0
-168 -143 0
-168 -178 0
-143 -178 0
176 0
-177 0
-178 0
-179 0
-180 0
146 171 0
-146 -171 0
31 46 51 56 0
61 66 71 76 81 86 0
91 111 116 0
121 131 141 146 0
6 66 156 0
11 71 131 161 0
16 46 76 166 0
21 51 81 111 141 0
62 67 72 77 82 87 0
92 112 117 0
12 72 132 162 0
63 68 73 78 83 88 0
93 113 118 0
123 133 143 148 0
18 48 78 168 0
14 74 134 164 0